
===== New CPLEX run =====
Instance: /home/yorig/tuner/mpils-tests/instances/miplib/medium-1/neos-3555904-turama.mps
Config: /scratch/yorig/mpils-results-grid-seconds-10-no-mip-start/medium-1/4proc/seed-5/10_neos-3555904-turama_seed-5_20260503_050237/iterated_local_search/run_2_worker_1/ils_config_16957666276679199245.prm
========================

Selected objective sense:  MINIMIZE
Selected objective  name:  Obj
Selected RHS        name:  RHS
Selected bound      name:  Bound
Version identifier: 22.1.2.0 | 2024-11-26 | 0edbb82fd
CPXPARAM_Threads                                 8
CPXPARAM_Parallel                                1
CPXPARAM_Emphasis_MIP                            5
CPXPARAM_TimeLimit                               10
2 of 2 MIP starts provided solutions.
MIP start 'm1' defined initial solution with objective -34.7000.
Tried aggregator 3 times.
MIP Presolve eliminated 88266 rows and 7696 columns.
MIP Presolve modified 93290 coefficients.
Aggregator did 11080 substitutions.
Reduced MIP has 47145 rows, 18685 columns, and 201232 nonzeros.
Reduced MIP has 18685 binaries, 0 generals, 0 SOSs, and 0 indicators.
Presolve time = 0.82 sec. (1435.97 ticks)
Probing fixed 2456 vars, tightened 0 bounds.
Probing changed sense of 6 constraints.
Probing time = 1.14 sec. (1226.29 ticks)
Tried aggregator 2 times.
MIP Presolve eliminated 9109 rows and 2642 columns.
MIP Presolve modified 5050 coefficients.
Aggregator did 410 substitutions.
Reduced MIP has 37623 rows, 15633 columns, and 145869 nonzeros.
Reduced MIP has 15633 binaries, 0 generals, 0 SOSs, and 0 indicators.
Presolve time = 0.32 sec. (568.73 ticks)
Probing fixed 494 vars, tightened 0 bounds.
Probing time = 0.55 sec. (600.78 ticks)
Tried aggregator 2 times.
Detecting symmetries...
MIP Presolve eliminated 3147 rows and 660 columns.
MIP Presolve modified 588 coefficients.
Aggregator did 651 substitutions.
Reduced MIP has 33825 rows, 14322 columns, and 131337 nonzeros.
Reduced MIP has 14322 binaries, 0 generals, 0 SOSs, and 0 indicators.
Presolve time = 0.29 sec. (517.68 ticks)
Probing time = 0.02 sec. (16.92 ticks)
Clique table members: 87904.
MIP emphasis: heuristic.
MIP search method: dynamic search.
Parallel mode: deterministic, using up to 8 threads.
Root relaxation solution time = 1.17 sec. (1414.56 ticks)

        Nodes                                         Cuts/
   Node  Left     Objective  IInf  Best Integer    Best Bound    ItCnt     Gap

*     0+    0                          -34.7000   -27044.9000              --- 
      0     0      -40.9500    62      -34.7000      -40.9500    14915   18.01%
Advanced basis not built.

Root node processing (before b&c):
  Real time             =   10.01 sec. (15030.06 ticks)
Parallel b&c, 8 threads:
  Real time             =    0.00 sec. (0.00 ticks)
  Sync time (average)   =    0.00 sec.
  Wait time (average)   =    0.00 sec.
                          ------------
Total (root+branch&cut) =   10.01 sec. (15030.06 ticks)
Gap: 18.01%
Upper bound: -34.7
Lower bound: -40.95
End of CPLEX run. Time: 10.0134 seconds

===== New CPLEX run =====
Instance: /home/yorig/tuner/mpils-tests/instances/miplib/medium-1/neos-3555904-turama.mps
Config: /scratch/yorig/mpils-results-grid-seconds-10-no-mip-start/medium-1/4proc/seed-5/10_neos-3555904-turama_seed-5_20260503_050237/iterated_local_search/run_2_worker_1/ils_config_8377981177332969131.prm
========================

Selected objective sense:  MINIMIZE
Selected objective  name:  Obj
Selected RHS        name:  RHS
Selected bound      name:  Bound
Version identifier: 22.1.2.0 | 2024-11-26 | 0edbb82fd
CPXPARAM_Threads                                 8
CPXPARAM_Parallel                                1
CPXPARAM_MIP_Cuts_PathCut                        -1
CPXPARAM_Emphasis_MIP                            5
CPXPARAM_TimeLimit                               10
2 of 2 MIP starts provided solutions.
MIP start 'm1' defined initial solution with objective -34.7000.
Tried aggregator 3 times.
MIP Presolve eliminated 88266 rows and 7696 columns.
MIP Presolve modified 93290 coefficients.
Aggregator did 11080 substitutions.
Reduced MIP has 47145 rows, 18685 columns, and 201232 nonzeros.
Reduced MIP has 18685 binaries, 0 generals, 0 SOSs, and 0 indicators.
Presolve time = 0.82 sec. (1435.97 ticks)
Probing fixed 2456 vars, tightened 0 bounds.
Probing changed sense of 6 constraints.
Probing time = 1.15 sec. (1226.29 ticks)
Tried aggregator 2 times.
MIP Presolve eliminated 9109 rows and 2642 columns.
MIP Presolve modified 5050 coefficients.
Aggregator did 410 substitutions.
Reduced MIP has 37623 rows, 15633 columns, and 145869 nonzeros.
Reduced MIP has 15633 binaries, 0 generals, 0 SOSs, and 0 indicators.
Presolve time = 0.32 sec. (568.73 ticks)
Probing fixed 494 vars, tightened 0 bounds.
Probing time = 0.55 sec. (600.78 ticks)
Tried aggregator 2 times.
Detecting symmetries...
MIP Presolve eliminated 3147 rows and 660 columns.
MIP Presolve modified 588 coefficients.
Aggregator did 651 substitutions.
Reduced MIP has 33825 rows, 14322 columns, and 131337 nonzeros.
Reduced MIP has 14322 binaries, 0 generals, 0 SOSs, and 0 indicators.
Presolve time = 0.29 sec. (517.68 ticks)
Probing time = 0.02 sec. (16.92 ticks)
Clique table members: 87904.
MIP emphasis: heuristic.
MIP search method: dynamic search.
Parallel mode: deterministic, using up to 8 threads.
Root relaxation solution time = 1.17 sec. (1414.56 ticks)

        Nodes                                         Cuts/
   Node  Left     Objective  IInf  Best Integer    Best Bound    ItCnt     Gap

*     0+    0                          -34.7000   -27044.9000              --- 
      0     0      -40.9500    62      -34.7000      -40.9500    14915   18.01%
Advanced basis not built.

Root node processing (before b&c):
  Real time             =   10.01 sec. (15070.68 ticks)
Parallel b&c, 8 threads:
  Real time             =    0.00 sec. (0.00 ticks)
  Sync time (average)   =    0.00 sec.
  Wait time (average)   =    0.00 sec.
                          ------------
Total (root+branch&cut) =   10.01 sec. (15070.68 ticks)
Gap: 18.01%
Upper bound: -34.7
Lower bound: -40.95
End of CPLEX run. Time: 10.0135 seconds

===== New CPLEX run =====
Instance: /home/yorig/tuner/mpils-tests/instances/miplib/medium-1/neos-3555904-turama.mps
Config: /scratch/yorig/mpils-results-grid-seconds-10-no-mip-start/medium-1/4proc/seed-5/10_neos-3555904-turama_seed-5_20260503_050237/iterated_local_search/run_2_worker_1/ils_config_7996245778148271626.prm
========================

Selected objective sense:  MINIMIZE
Selected objective  name:  Obj
Selected RHS        name:  RHS
Selected bound      name:  Bound
Version identifier: 22.1.2.0 | 2024-11-26 | 0edbb82fd
CPXPARAM_Threads                                 8
CPXPARAM_Parallel                                1
CPXPARAM_MIP_Cuts_Gomory                         1
CPXPARAM_Emphasis_MIP                            5
CPXPARAM_TimeLimit                               10
2 of 2 MIP starts provided solutions.
MIP start 'm1' defined initial solution with objective -34.7000.
Tried aggregator 3 times.
MIP Presolve eliminated 88266 rows and 7696 columns.
MIP Presolve modified 93290 coefficients.
Aggregator did 11080 substitutions.
Reduced MIP has 47145 rows, 18685 columns, and 201232 nonzeros.
Reduced MIP has 18685 binaries, 0 generals, 0 SOSs, and 0 indicators.
Presolve time = 0.82 sec. (1435.97 ticks)
Probing fixed 2456 vars, tightened 0 bounds.
Probing changed sense of 6 constraints.
Probing time = 1.14 sec. (1226.29 ticks)
Tried aggregator 2 times.
MIP Presolve eliminated 9109 rows and 2642 columns.
MIP Presolve modified 5050 coefficients.
Aggregator did 410 substitutions.
Reduced MIP has 37623 rows, 15633 columns, and 145869 nonzeros.
Reduced MIP has 15633 binaries, 0 generals, 0 SOSs, and 0 indicators.
Presolve time = 0.32 sec. (568.73 ticks)
Probing fixed 494 vars, tightened 0 bounds.
Probing time = 0.55 sec. (600.78 ticks)
Tried aggregator 2 times.
Detecting symmetries...
MIP Presolve eliminated 3147 rows and 660 columns.
MIP Presolve modified 588 coefficients.
Aggregator did 651 substitutions.
Reduced MIP has 33825 rows, 14322 columns, and 131337 nonzeros.
Reduced MIP has 14322 binaries, 0 generals, 0 SOSs, and 0 indicators.
Presolve time = 0.29 sec. (517.68 ticks)
Probing time = 0.02 sec. (16.92 ticks)
Clique table members: 87904.
MIP emphasis: heuristic.
MIP search method: dynamic search.
Parallel mode: deterministic, using up to 8 threads.
Root relaxation solution time = 1.17 sec. (1414.56 ticks)

        Nodes                                         Cuts/
   Node  Left     Objective  IInf  Best Integer    Best Bound    ItCnt     Gap

*     0+    0                          -34.7000   -27044.9000              --- 
      0     0      -40.9500    62      -34.7000      -40.9500    14915   18.01%
Advanced basis not built.

Gomory fractional cuts applied:  0

Root node processing (before b&c):
  Real time             =   10.01 sec. (15080.03 ticks)
Parallel b&c, 8 threads:
  Real time             =    0.00 sec. (0.00 ticks)
  Sync time (average)   =    0.00 sec.
  Wait time (average)   =    0.00 sec.
                          ------------
Total (root+branch&cut) =   10.01 sec. (15080.03 ticks)
Gap: 18.01%
Upper bound: -34.7
Lower bound: -40.95
End of CPLEX run. Time: 10.0132 seconds

===== New CPLEX run =====
Instance: /home/yorig/tuner/mpils-tests/instances/miplib/medium-1/neos-3555904-turama.mps
Config: /scratch/yorig/mpils-results-grid-seconds-10-no-mip-start/medium-1/4proc/seed-5/10_neos-3555904-turama_seed-5_20260503_050237/iterated_local_search/run_2_worker_1/ils_config_14921508010286178948.prm
========================

Selected objective sense:  MINIMIZE
Selected objective  name:  Obj
Selected RHS        name:  RHS
Selected bound      name:  Bound
Version identifier: 22.1.2.0 | 2024-11-26 | 0edbb82fd
CPXPARAM_Threads                                 8
CPXPARAM_Parallel                                1
CPXPARAM_TimeLimit                               10
2 of 2 MIP starts provided solutions.
MIP start 'm1' defined initial solution with objective -34.7000.
Tried aggregator 3 times.
MIP Presolve eliminated 88266 rows and 7696 columns.
MIP Presolve modified 93290 coefficients.
Aggregator did 11080 substitutions.
Reduced MIP has 47145 rows, 18685 columns, and 201232 nonzeros.
Reduced MIP has 18685 binaries, 0 generals, 0 SOSs, and 0 indicators.
Presolve time = 0.82 sec. (1435.97 ticks)
Probing fixed 2456 vars, tightened 0 bounds.
Probing changed sense of 6 constraints.
Probing time = 1.14 sec. (1226.29 ticks)
Tried aggregator 2 times.
MIP Presolve eliminated 9109 rows and 2642 columns.
MIP Presolve modified 5050 coefficients.
Aggregator did 410 substitutions.
Reduced MIP has 37623 rows, 15633 columns, and 145869 nonzeros.
Reduced MIP has 15633 binaries, 0 generals, 0 SOSs, and 0 indicators.
Presolve time = 0.32 sec. (568.73 ticks)
Probing fixed 494 vars, tightened 0 bounds.
Probing time = 0.55 sec. (600.78 ticks)
Tried aggregator 2 times.
Detecting symmetries...
MIP Presolve eliminated 3147 rows and 660 columns.
MIP Presolve modified 588 coefficients.
Aggregator did 651 substitutions.
Reduced MIP has 33825 rows, 14322 columns, and 131337 nonzeros.
Reduced MIP has 14322 binaries, 0 generals, 0 SOSs, and 0 indicators.
Presolve time = 0.29 sec. (517.68 ticks)
Probing time = 0.02 sec. (16.92 ticks)
Clique table members: 87904.
MIP emphasis: balance optimality and feasibility.
MIP search method: dynamic search.
Parallel mode: deterministic, using up to 8 threads.
Root relaxation solution time = 1.17 sec. (1414.56 ticks)

        Nodes                                         Cuts/
   Node  Left     Objective  IInf  Best Integer    Best Bound    ItCnt     Gap

*     0+    0                          -34.7000   -27044.9000              --- 
      0     0      -40.9500    62      -34.7000      -40.9500    14915   18.01%

Root node processing (before b&c):
  Real time             =   10.01 sec. (13625.53 ticks)
Parallel b&c, 8 threads:
  Real time             =    0.00 sec. (0.00 ticks)
  Sync time (average)   =    0.00 sec.
  Wait time (average)   =    0.00 sec.
                          ------------
Total (root+branch&cut) =   10.01 sec. (13625.53 ticks)
Gap: 18.01%
Upper bound: -34.7
Lower bound: -40.95
End of CPLEX run. Time: 10.0104 seconds

===== New CPLEX run =====
Instance: /home/yorig/tuner/mpils-tests/instances/miplib/medium-1/neos-3555904-turama.mps
Config: /scratch/yorig/mpils-results-grid-seconds-10-no-mip-start/medium-1/4proc/seed-5/10_neos-3555904-turama_seed-5_20260503_050237/iterated_local_search/run_2_worker_1/ils_config_5795182131189996652.prm
========================

Selected objective sense:  MINIMIZE
Selected objective  name:  Obj
Selected RHS        name:  RHS
Selected bound      name:  Bound
Version identifier: 22.1.2.0 | 2024-11-26 | 0edbb82fd
CPXPARAM_Threads                                 8
CPXPARAM_Parallel                                1
CPXPARAM_MIP_Limits_GomoryCand                   400
CPXPARAM_Emphasis_MIP                            5
CPXPARAM_TimeLimit                               10
2 of 2 MIP starts provided solutions.
MIP start 'm1' defined initial solution with objective -34.7000.
Tried aggregator 3 times.
MIP Presolve eliminated 88266 rows and 7696 columns.
MIP Presolve modified 93290 coefficients.
Aggregator did 11080 substitutions.
Reduced MIP has 47145 rows, 18685 columns, and 201232 nonzeros.
Reduced MIP has 18685 binaries, 0 generals, 0 SOSs, and 0 indicators.
Presolve time = 0.82 sec. (1435.97 ticks)
Probing fixed 2456 vars, tightened 0 bounds.
Probing changed sense of 6 constraints.
Probing time = 1.14 sec. (1226.29 ticks)
Tried aggregator 2 times.
MIP Presolve eliminated 9109 rows and 2642 columns.
MIP Presolve modified 5050 coefficients.
Aggregator did 410 substitutions.
Reduced MIP has 37623 rows, 15633 columns, and 145869 nonzeros.
Reduced MIP has 15633 binaries, 0 generals, 0 SOSs, and 0 indicators.
Presolve time = 0.32 sec. (568.73 ticks)
Probing fixed 494 vars, tightened 0 bounds.
Probing time = 0.55 sec. (600.78 ticks)
Tried aggregator 2 times.
Detecting symmetries...
MIP Presolve eliminated 3147 rows and 660 columns.
MIP Presolve modified 588 coefficients.
Aggregator did 651 substitutions.
Reduced MIP has 33825 rows, 14322 columns, and 131337 nonzeros.
Reduced MIP has 14322 binaries, 0 generals, 0 SOSs, and 0 indicators.
Presolve time = 0.29 sec. (517.68 ticks)
Probing time = 0.02 sec. (16.92 ticks)
Clique table members: 87904.
MIP emphasis: heuristic.
MIP search method: dynamic search.
Parallel mode: deterministic, using up to 8 threads.
Root relaxation solution time = 1.17 sec. (1414.56 ticks)

        Nodes                                         Cuts/
   Node  Left     Objective  IInf  Best Integer    Best Bound    ItCnt     Gap

*     0+    0                          -34.7000   -27044.9000              --- 
      0     0      -40.9500    62      -34.7000      -40.9500    14915   18.01%
Advanced basis not built.

Root node processing (before b&c):
  Real time             =   10.01 sec. (15049.27 ticks)
Parallel b&c, 8 threads:
  Real time             =    0.00 sec. (0.00 ticks)
  Sync time (average)   =    0.00 sec.
  Wait time (average)   =    0.00 sec.
                          ------------
Total (root+branch&cut) =   10.01 sec. (15049.27 ticks)
Gap: 18.01%
Upper bound: -34.7
Lower bound: -40.95
End of CPLEX run. Time: 10.0132 seconds
